8303775908379109705014,1,1,2,02,12,1,2,04,11,1,2,06,4,1,2,02,15,1,2,05,10,1,2,012,4,1,2,011,2,1,2,01,8,1,2,012,6,1,2,05,6,1,2,02,3,1,2,04,12,1,2,010,7,1,2,011,15,1,2,05,7,1,2,014,3,1,2,012,4,1,2,01,14,1,2,08,11,1,2,014,11,1,2,01,15,1,2,010,15,1,2,07,11,1,2,05,10,1,2,012,8,1,2,010,7,1,2,015,5,1,2,015,1,1,2,07,12,1,2,03,13,1,2,03,10,1,2,014,10,1,2,07,2,1,2,05,7,1,2,07,6,1,2,011,9,1,2,011,14,1,2,015,11,1,2,011,5,1,2,013,12,1,2,06,4,1,2,03,4,1,2,04,11,1,2,05,15,1,2,09,9,1,2,015,15,1,2,07,9,1,2,01,14,1,2,09,7,1,2,0